XSym
0024
082a351265ba193e7c012a90c97b4f98
Versions/Current/libjpeg
                                                                                                                                                                                                                                                                                                                                                                                                                                                                                                                                                                                                                                                                                                                                                                                                                                                                                                                                                                                                                                       